c   #vars: 71   #clauses: 323   #literals: 882
c 
p cnf 71 323
-1 -2 0
-3 -4 0
40 41 57 58 0
17 -42 46 47 0
-5 -6 0
-7 -8 0
-9 -10 0
-11 -12 0
-13 -14 0
18 19 44 45 0
1 2 44 45 0
-15 -16 0
22 33 34 -64 0
-18 -19 0
-20 -21 0
35 -50 64 65 0
-23 -24 0
-25 -26 0
-27 -28 0
-29 -30 0
-31 -32 0
-33 -34 0
27 28 69 70 0
18 19 -38 63 0
-36 -37 0
-38 -39 0
-40 -41 0
-42 -43 0
13 14 64 65 0
-44 -45 0
-46 -47 0
20 21 64 65 0
-49 -50 0
5 6 67 68 0
-51 -52 0
-53 -54 0
-55 -56 0
23 24 49 50 0
36 37 49 50 0
-57 -58 0
-59 -60 0
-61 -62 0
5 6 -44 66 0
-64 -65 0
-25 40 41 71 0
1 2 55 56 0
-67 -68 0
-69 -70 0
-1 -29 0
-2 -30 0
-1 -38 0
-2 -39 0
9 10 51 52 0
7 8 61 62 0
-1 -44 0
-2 -45 0
29 30 59 60 0
-1 -55 0
-2 -56 0
9 10 53 54 0
-1 -57 0
-2 -58 0
33 34 -44 66 0
-3 -29 0
-4 -30 0
40 41 49 50 0
-3 -36 0
-4 -37 0
11 12 53 54 0
-3 -46 0
-4 -47 0
-3 -57 0
-4 -58 0
36 37 51 52 0
-3 -61 0
-4 -62 0
-23 48 53 54 0
36 37 64 65 0
-23 48 69 70 0
22 -33 35 -50 0
48 -53 69 70 0
13 14 40 41 0
18 19 31 32 0
-5 -25 0
-6 -26 0
20 21 67 68 0
-5 -29 0
-6 -30 0
-5 -31 0
-6 -32 0
20 21 42 43 0
-5 -53 0
-6 -54 0
20 21 55 56 0
-5 -59 0
-6 -60 0
-9 40 41 71 0
-6 -66 0
-5 -67 0
-6 -68 0
-7 -27 0
-8 -28 0
9 10 -40 71 0
-7 -49 0
-8 -50 0
-7 -61 0
-8 -62 0
42 43 53 54 0
-7 -64 0
-8 -65 0
-7 -69 0
-8 -70 0
17 42 43 -59 0
31 32 51 52 0
17 -42 59 60 0
7 8 64 65 0
17 42 43 -46 0
-9 -33 0
-10 -34 0
25 26 53 54 0
23 24 48 -69 0
15 16 67 68 0
-9 -51 0
-10 -52 0
15 16 46 47 0
-9 -53 0
-10 -54 0
15 16 25 26 0
-9 -69 0
-10 -70 0
33 34 59 60 0
-10 -71 0
9 10 69 70 0
-11 -44 0
-12 -45 0
1 2 29 30 0
-11 -53 0
-12 -54 0
23 24 51 52 0
-11 -57 0
-12 -58 0
7 8 49 50 0
5 6 -33 66 0
-12 -63 0
-13 -38 0
-14 -39 0
27 28 53 54 0
-13 -40 0
-14 -41 0
-13 -46 0
-14 -47 0
-13 -64 0
-14 -65 0
15 16 29 30 0
23 24 48 -53 0
5 6 29 30 0
31 32 55 56 0
-15 -25 0
-16 -26 0
-15 -29 0
-16 -30 0
7 8 69 70 0
3 4 61 62 0
-15 -46 0
-16 -47 0
22 -33 64 65 0
-15 -67 0
-16 -68 0
23 24 61 62 0
-15 -69 0
-16 -70 0
44 45 69 70 0
22 33 34 -35 0
-17 -43 0
-11 38 39 63 0
-17 -47 0
36 37 57 58 0
-18 38 39 63 0
-17 -60 0
-18 -31 0
-19 -32 0
5 6 53 54 0
-18 -36 0
-19 -37 0
-18 -40 0
-19 -41 0
-18 -44 0
-19 -45 0
1 2 57 58 0
-33 44 45 66 0
-19 -63 0
-20 -27 0
-21 -28 0
20 21 27 28 0
-20 -33 0
-21 -34 0
3 4 46 47 0
-20 -42 0
-21 -43 0
27 28 61 62 0
42 43 57 58 0
-20 -55 0
-21 -56 0
7 8 27 28 0
-20 -64 0
-21 -65 0
-20 -67 0
-21 -68 0
22 35 -50 -64 0
-22 35 64 65 0
-22 -34 0
15 16 69 70 0
35 49 50 -65 0
-11 18 19 63 0
38 39 51 52 0
-22 35 49 50 0
-22 -65 0
18 19 36 37 0
-23 -33 0
-24 -34 0
3 4 57 58 0
-24 -48 0
3 4 36 37 0
-23 -49 0
-24 -50 0
25 26 69 70 0
-23 -51 0
-24 -52 0
-23 -59 0
-24 -60 0
17 46 47 -59 0
-23 -61 0
-24 -62 0
-25 -53 0
-26 -54 0
5 6 25 26 0
-25 -69 0
-26 -70 0
-26 -71 0
-27 -53 0
-28 -54 0
3 4 29 30 0
-27 -61 0
-28 -62 0
-27 -67 0
-28 -68 0
-27 -69 0
-28 -70 0
20 21 33 34 0
-29 -57 0
-30 -58 0
33 34 51 52 0
-29 -59 0
-30 -60 0
23 24 33 34 0
18 19 40 41 0
-31 -51 0
-32 -52 0
-31 -55 0
-32 -56 0
5 6 31 32 0
-33 -51 0
-34 -52 0
29 30 57 58 0
-33 -59 0
-34 -60 0
11 12 57 58 0
25 26 -40 71 0
-34 -66 0
48 53 54 -69 0
11 12 44 45 0
-35 -49 0
11 12 -38 63 0
-35 -64 0
11 12 -18 63 0
1 2 38 39 0
-36 -49 0
-37 -50 0
38 39 67 68 0
-36 -51 0
-37 -52 0
13 14 38 39 0
-36 -57 0
-37 -58 0
-5 33 34 66 0
-36 -64 0
-37 -65 0
-38 -51 0
-39 -52 0
-5 44 45 66 0
-39 -63 0
9 10 -25 71 0
-38 -67 0
-39 -68 0
-40 -49 0
-41 -50 0
23 24 59 60 0
-40 -57 0
-41 -58 0
42 43 49 50 0
-41 -71 0
46 47 55 56 0
-42 -49 0
-43 -50 0
13 14 46 47 0
-42 -53 0
-43 -54 0
22 -35 64 65 0
-42 -57 0
-43 -58 0
17 -46 59 60 0
22 -33 35 -65 0
-9 25 26 71 0
-45 -66 0
-44 -69 0
-45 -70 0
9 10 33 34 0
-46 -55 0
-47 -56 0
27 28 67 68 0
5 6 59 60 0
-48 -54 0
-48 -70 0
